# Init
units metal
dimension 3
boundary  p p p
atom_style atomic

# Variable
variable LatParam equal 3.61
variable Material string Cu

#######################################################################
# Define ra 1 hộp và bên trong có các nguyên tử
# Mạng ->Vùng->Hộp->Nguyên tử
lattice fcc ${LatParam} # Tạo 1 mạng lưới
# Tạo 1 vùng 
region THONV block 0 10 0 10 0 10 # x từ 0->10, tương tụ cho y z
# Tạo 1 hộp chưa cái vùng trên
create_box 1 THONV

# Đến đây đã có 1 hộp nhưng chưa có atom nào
# Ta cần tạo 1 hướng cho mạng
lattice fcc ${LatParam} orient x 1 0 0 orient y 0 1 0 orient z 0 0 1
# Sau đó tạo ra các nguyên tử type = 1 và lấp đầy vào vùng THONV
create_atoms 1 region THONV

########################################################################
# Các nguyên tử tương tác với nhau như nào
# Thế năng nguyên tử (Interatomic Potential)
pair_style meam
pair_coeff * * library.meam ${Material} ${Material}.meam ${Material}

# Property Computes ( yêu cầu LAMMPS tính toán 1 số giá trị đặc biệt )
## Sử dụng loại phép tính là pe/atom để tính toán thế năng cho All các nguyên tử và lưu vào biến TheNang
compute TheNang all pe/atom   
## Tương tự như trên để tính ứng xuất                               
compute UngXuat all stress/atom NULL

########################################
# Trong các phân tử, ở cấp độ động phân tử thì nhiệt độ chỉ là 1 dao động ngẫu nhiên trên mỗi nguyên tử
# Vì vậy ta sẽ tạo ra dao động ngẫu nhiên
# sau đó cho phân tử ở chố độ bình thường, sau đó sẽ làm biến dạng nó và tính toán độ biến dạng và ứng xuất

# set timestep bắt đầu ở 0
reset_timestep 0
# Chọn step time, nguyên tử càng nhẹ thì step time cần càng nhỏ, vì dao động nhiệt sẽ ở tần số cao
timestep 0.005

# set temperature, nhiệt độ là vận tốc và sẽ là những dao động nên sẽ dùng hàm vẫn tốc
# Tạo ra 1 vận tốc random và áp dụng cho tất cả các nguyên tử
# Tạo vận tốc ở cường độ 300 Kenvin, và cung cấp 1 số ngẫu nhiên để random
velocity all create 300 12345 

# Để tính ứng xuất(strain) và biến dạng(stress) thì cần phải tác động vô hộp như kéo, ép hộp lại...
# Thiết lập các điều kiện biên , ta dùng lại ntp để nhiệt độ và áp xuất không đổi , và ta cho
     # không đổi ở Y và Z, và sau đó chỉ định độ suy giảm trên trục X, bóp hộp X lại nên là TRỪ
fix 1 all npt temp 300 300 0.5 y 0 0 5 z 0 0 5 drag 1
fix 2 all deform 1 x erate -0.01


# Xuất ứng xuất(strain) and biến dạng(stress) to file
# Ứng xuất, thông qua chiều dài trục X của hộp
variable  tmp equal "lx"
variable  L0 equal ${tmp}
variable mStress equal "(lx - v_L0)/v_L0"
# for units metal, pressure is in [bars] = 100 [kpa] = 1/10000 [GPa]
# p2, p3, p4 are in GPa
variable  p1  equal "v_mStress"
variable p2 equal "-pxx/10000"
variable p3 equal "-pyy/10000"
variable p4 equal "-pzz/10000"

fix VanTho all print 100 "${p1} ${p2} ${p3} ${p4}" file Cu_BienDang.log

# use custom dump for OVITO output
dump 1 all custom 250 Output_1_Cu.*.log id x y z c_TheNang fx fy fz &
     c_UngXuat[1] c_UngXuat[2] c_UngXuat[3] c_UngXuat[4] c_UngXuat[5] c_UngXuat[6]

# display thermo
thermo 400
thermo_style custom step v_mStress temp v_p2 v_p3 v_p4 ke pe press

# run for 5 ps
run 1000

######################
print "All done"